DATASET = "thpack3";
INSTANCE = "100";

WIDTH = 233;
HEIGHT = 220;
LENGTH = 587;

NO_OF_SHAPES = 8;
size = [|
  78,49,47 |
  46,45,43 |
  98,44,36 |
  100,89,31 |
  108,76,47 |
  75,36,28 |
  108,82,56 |
  45,41,24 |
|];

verticality = [|
  1,1,1 |
  1,1,1 |
  0,1,1 |
  0,0,1 |
  0,1,1 |
  0,1,1 |
  1,1,1 |
  1,1,1 |
|];

box_count = [
  11,
  16,
  16,
  18,
  22,
  21,
  17,
  16,
];
